(declare-const |x':36:43| Int)
(declare-const havoc Int)
(declare-const |K:40:42| Int)
(declare-const |tmp___0':37:44| Int)
(declare-const |havoc:9:33:41:45| Int)
(declare-const tmp___0 Int)
(assert (and (or (= (+ havoc -1) 0)
                   (and (not (= (+ havoc -1) 0)) (= (+ havoc -2) 0)))
               (or (not (<= (- |K:40:42|) 0))
                     (<= (+ |x':36:43| (- |K:40:42|) (- havoc)) 0))
               (or (not (<= (- |K:40:42|) 0))
                     (<= (+ (- |x':36:43|) (- |K:40:42|) havoc) 0))
               (or (and (= |K:40:42| 0)
                          (= (+ (- |tmp___0':37:44|) tmp___0) 0)
                          (= (+ (- |x':36:43|) havoc) 0))
                     (and (<= (+ (- |K:40:42|) 1) 0) (<= (+ (- havoc) 1) 0)
                            (<= (+ (- |x':36:43|) 1) 0)))
               (<= (- |K:40:42|) 0) (< (- |x':36:43|) 0)
               (= |havoc:9:33:41:45| 0) (not (<= (+ |x':36:43| -8) 0))))
(check-sat)
